presolving:
(round 1, fast)       227 del vars, 0 del conss, 0 add conss, 0 chg bounds, 0 chg sides, 0 chg coeffs, 0 upgd conss, 0 impls, 452 clqs
(round 2, exhaustive) 227 del vars, 0 del conss, 0 add conss, 0 chg bounds, 0 chg sides, 0 chg coeffs, 452 upgd conss, 0 impls, 452 clqs
   (2.0s) probing: 51/50850 (0.1%) - 0 fixings, 0 aggregations, 0 implications, 0 bound changes
   (2.0s) probing aborted: 50/50 successive totally useless probings
   Deactivated symmetry handling methods, since SCIP was built without symmetry detector (SYM=none).
presolving (3 rounds: 3 fast, 2 medium, 2 exhaustive):
 227 deleted vars, 0 deleted constraints, 0 added constraints, 0 tightened bounds, 0 added holes, 0 changed sides, 0 changed coefficients
 0 implications, 452 cliques
presolved problem has 51075 variables (50850 bin, 0 int, 0 impl, 225 cont) and 50852 constraints
    452 constraints of type <setppc>
  50400 constraints of type <linear>
Presolving Time: 2.00

 time | node  | left  |LP iter|LP it/n|mem/heur|mdpt |vars |cons |rows |cuts |sepa|confs|strbr|  dualbound   | primalbound  |  gap   | compl. 
p 4.0s|     1 |     0 |   225 |     - | vbounds|   0 |  51k|  50k|  50k|   0 |  0 |   5 |   0 | 0.000000e+00 | 1.106160e+05 |    Inf | unknown
  5.0s|     1 |     0 |   855 |     - |   436M |   0 |  51k|  50k|  50k|   0 |  0 |   5 |   0 | 4.997284e+04 | 1.106160e+05 | 121.35%| unknown
  6.0s|     1 |     0 |  1067 |     - |   445M |   0 |  51k|  50k|  51k| 158 |  1 |   5 |   0 | 5.293108e+04 | 1.106160e+05 | 108.98%| unknown
  7.0s|     1 |     0 |  1191 |     - |   452M |   0 |  51k|  50k|  51k| 258 |  2 |   5 |   0 | 5.339597e+04 | 1.106160e+05 | 107.16%| unknown
  8.0s|     1 |     0 |  1194 |     - |   462M |   0 |  51k|  50k|  51k| 260 |  3 |   5 |   0 | 5.339597e+04 | 1.106160e+05 | 107.16%| unknown
  9.0s|     1 |     0 |  1254 |     - |   467M |   0 |  51k|  50k|  51k| 292 |  4 |   5 |   0 | 5.342982e+04 | 1.106160e+05 | 107.03%| unknown
 10.0s|     1 |     0 |  1372 |     - |   475M |   0 |  51k|  50k|  51k| 354 |  5 |   5 |   0 | 5.429149e+04 | 1.106160e+05 | 103.74%| unknown
 11.0s|     1 |     0 |  1423 |     - |   483M |   0 |  51k|  50k|  51k| 387 |  6 |   5 |   0 | 5.429149e+04 | 1.106160e+05 | 103.74%| unknown
 12.0s|     1 |     0 |  1482 |     - |   490M |   0 |  51k|  50k|  51k| 412 |  7 |   5 |   0 | 5.434149e+04 | 1.106160e+05 | 103.56%| unknown
 13.0s|     1 |     0 |  1609 |     - |   497M |   0 |  51k|  50k|  51k| 477 |  8 |   5 |   0 | 5.468200e+04 | 1.106160e+05 | 102.29%| unknown
 14.0s|     1 |     0 |  1680 |     - |   508M |   0 |  51k|  50k|  51k| 516 |  9 |   5 |   0 | 5.488097e+04 | 1.106160e+05 | 101.56%| unknown
 15.0s|     1 |     0 |  1726 |     - |   517M |   0 |  51k|  50k|  51k| 535 | 10 |   5 |   0 | 5.488334e+04 | 1.106160e+05 | 101.55%| unknown
 16.0s|     1 |     0 |  1840 |     - |   522M |   0 |  51k|  50k|  51k| 585 | 11 |   5 |   0 | 5.505971e+04 | 1.106160e+05 | 100.90%| unknown
 18.0s|     1 |     0 |  1912 |     - |   530M |   0 |  51k|  50k|  51k| 619 | 12 |   5 |   0 | 5.511676e+04 | 1.106160e+05 | 100.69%| unknown
 19.0s|     1 |     0 |  1955 |     - |   535M |   0 |  51k|  50k|  51k| 638 | 13 |   5 |   0 | 5.517406e+04 | 1.106160e+05 | 100.49%| unknown
 time | node  | left  |LP iter|LP it/n|mem/heur|mdpt |vars |cons |rows |cuts |sepa|confs|strbr|  dualbound   | primalbound  |  gap   | compl. 
 19.0s|     1 |     0 |  1995 |     - |   540M |   0 |  51k|  50k|  51k| 655 | 14 |   5 |   0 | 5.521663e+04 | 1.106160e+05 | 100.33%| unknown
 23.0s|     1 |     0 |  2053 |     - |   545M |   0 |  51k|  50k|  51k| 674 | 15 |   5 |   0 | 5.528913e+04 | 1.106160e+05 | 100.07%| unknown
 24.0s|     1 |     0 |  2088 |     - |   553M |   0 |  51k|  50k|  51k| 693 | 16 |   5 |   0 | 5.531894e+04 | 1.106160e+05 |  99.96%| unknown
 25.0s|     1 |     0 |  2146 |     - |   560M |   0 |  51k|  50k|  51k| 706 | 17 |   5 |   0 | 5.534821e+04 | 1.106160e+05 |  99.85%| unknown
 26.0s|     1 |     0 |  2162 |     - |   565M |   0 |  51k|  50k|  51k| 718 | 18 |   5 |   0 | 5.534821e+04 | 1.106160e+05 |  99.85%| unknown
 27.0s|     1 |     0 |  2177 |     - |   571M |   0 |  51k|  50k|  51k| 723 | 19 |   5 |   0 | 5.534826e+04 | 1.106160e+05 |  99.85%| unknown
 28.0s|     1 |     0 |  2247 |     - |   576M |   0 |  51k|  50k|  51k| 748 | 20 |   5 |   0 | 5.543159e+04 | 1.106160e+05 |  99.55%| unknown
 33.0s|     1 |     0 |  2352 |     - |   576M |   0 |  51k|  50k|  51k| 808 | 21 |   5 |   0 | 5.549826e+04 | 1.106160e+05 |  99.31%| unknown
 34.0s|     1 |     0 |  2440 |     - |   578M |   0 |  51k|  50k|  51k| 860 | 22 |   5 |   0 | 5.558599e+04 | 1.106160e+05 |  99.00%| unknown
 35.0s|     1 |     0 |  2498 |     - |   578M |   0 |  51k|  50k|  51k| 903 | 23 |   5 |   0 | 5.559153e+04 | 1.106160e+05 |  98.98%| unknown
 36.0s|     1 |     0 |  2529 |     - |   578M |   0 |  51k|  50k|  51k| 921 | 24 |   5 |   0 | 5.559153e+04 | 1.106160e+05 |  98.98%| unknown
 37.0s|     1 |     0 |  2550 |     - |   578M |   0 |  51k|  50k|  51k| 938 | 25 |   5 |   0 | 5.559153e+04 | 1.106160e+05 |  98.98%| unknown
 38.0s|     1 |     0 |  2565 |     - |   578M |   0 |  51k|  50k|  51k| 950 | 26 |   5 |   0 | 5.559153e+04 | 1.106160e+05 |  98.98%| unknown
 41.0s|     1 |     0 |  2575 |     - |   578M |   0 |  51k|  50k|  51k| 958 | 27 |   5 |   0 | 5.559153e+04 | 1.106160e+05 |  98.98%| unknown
 42.0s|     1 |     0 |  2598 |     - |   578M |   0 |  51k|  50k|  51k| 976 | 28 |   5 |   0 | 5.572302e+04 | 1.106160e+05 |  98.51%| unknown
 time | node  | left  |LP iter|LP it/n|mem/heur|mdpt |vars |cons |rows |cuts |sepa|confs|strbr|  dualbound   | primalbound  |  gap   | compl. 
 43.0s|     1 |     0 |  2611 |     - |   578M |   0 |  51k|  50k|  51k| 991 | 29 |   5 |   0 | 5.572302e+04 | 1.106160e+05 |  98.51%| unknown
 44.0s|     1 |     0 |  2619 |     - |   578M |   0 |  51k|  50k|  51k| 999 | 30 |   5 |   0 | 5.572302e+04 | 1.106160e+05 |  98.51%| unknown
 45.0s|     1 |     0 |  2642 |     - |   579M |   0 |  51k|  50k|  51k|1016 | 31 |   5 |   0 | 5.572309e+04 | 1.106160e+05 |  98.51%| unknown
 46.0s|     1 |     0 |  2655 |     - |   581M |   0 |  51k|  50k|  51k|1027 | 32 |   5 |   0 | 5.572309e+04 | 1.106160e+05 |  98.51%| unknown
 49.0s|     1 |     0 |  2668 |     - |   581M |   0 |  51k|  50k|  51k|1035 | 33 |   5 |   0 | 5.572309e+04 | 1.106160e+05 |  98.51%| unknown
 50.0s|     1 |     0 |  2673 |     - |   581M |   0 |  51k|  50k|  51k|1040 | 34 |   5 |   0 | 5.572309e+04 | 1.106160e+05 |  98.51%| unknown
 51.0s|     1 |     0 |  2689 |     - |   581M |   0 |  51k|  50k|  51k|1053 | 35 |   5 |   0 | 5.572309e+04 | 1.106160e+05 |  98.51%| unknown
 52.0s|     1 |     0 |  2698 |     - |   581M |   0 |  51k|  50k|  51k|1059 | 36 |   5 |   0 | 5.572309e+04 | 1.106160e+05 |  98.51%| unknown
 53.0s|     1 |     0 |  2699 |     - |   581M |   0 |  51k|  50k|  51k|1061 | 37 |   5 |   0 | 5.572309e+04 | 1.106160e+05 |  98.51%| unknown
 53.0s|     1 |     0 |  2700 |     - |   581M |   0 |  51k|  50k|  51k|1062 | 38 |   5 |   0 | 5.572309e+04 | 1.106160e+05 |  98.51%| unknown
  137s|     1 |     2 | 10038 |     - |   592M |   0 |  51k|  50k|  51k|1062 | 38 |   8 |  44 | 5.578976e+04 | 1.106160e+05 |  98.27%| unknown

SCIP Status        : solving was interrupted [time limit reached]
Solving Time (sec) : 600.00
Solving Nodes      : 33
Primal Bound       : +1.10615992750638e+05 (1 solutions)
Dual Bound         : +5.61062846139961e+04
Gap                : 97.15 %
Trying to solve problem with MTZ Solver Method...
Starting Solver, time limit setted to 10 minutes
Route:  [[0, 2], [1, 3], [2, 1], [3, 4], [4, 5], [5, 6], [6, 7], [7, 8], [8, 9], [9, 10], [10, 11], [11, 12], [12, 13], [13, 14], [14, 15], [15, 16], [16, 17], [17, 18], [18, 19], [19, 20], [20, 21], [21, 22], [22, 23], [23, 24], [24, 25], [25, 26], [26, 27], [27, 28], [28, 29], [29, 30], [30, 31], [31, 32], [32, 33], [33, 34], [34, 35], [35, 36], [36, 37], [37, 38], [38, 39], [39, 40], [40, 41], [41, 42], [42, 43], [43, 44], [44, 45], [45, 46], [46, 47], [47, 48], [48, 49], [49, 50], [50, 51], [51, 52], [52, 53], [53, 54], [54, 55], [55, 56], [56, 57], [57, 58], [58, 59], [59, 60], [60, 61], [61, 62], [62, 63], [63, 64], [64, 65], [65, 66], [66, 67], [67, 68], [68, 69], [69, 70], [70, 71], [71, 72], [72, 73], [73, 74], [74, 75], [75, 76], [76, 77], [77, 78], [78, 79], [79, 80], [80, 81], [81, 82], [82, 83], [83, 84], [84, 85], [85, 86], [86, 87], [87, 88], [88, 89], [89, 90], [90, 91], [91, 92], [92, 93], [93, 94], [94, 95], [95, 96], [96, 97], [97, 98], [98, 99], [99, 100], [100, 101], [101, 102], [102, 103], [103, 104], [104, 105], [105, 106], [106, 107], [107, 108], [108, 109], [109, 110], [110, 111], [111, 112], [112, 113], [113, 114], [114, 115], [115, 116], [116, 117], [117, 118], [118, 119], [119, 120], [120, 121], [121, 122], [122, 123], [123, 124], [124, 125], [125, 126], [126, 127], [127, 128], [128, 129], [129, 130], [130, 131], [131, 132], [132, 133], [133, 134], [134, 135], [135, 136], [136, 137], [137, 138], [138, 139], [139, 140], [140, 141], [141, 142], [142, 143], [143, 144], [144, 145], [145, 146], [146, 147], [147, 148], [148, 149], [149, 150], [150, 151], [151, 152], [152, 153], [153, 154], [154, 155], [155, 156], [156, 157], [157, 158], [158, 159], [159, 160], [160, 161], [161, 162], [162, 163], [163, 164], [164, 165], [165, 166], [166, 167], [167, 168], [168, 169], [169, 170], [170, 171], [171, 172], [172, 173], [173, 174], [174, 175], [175, 176], [176, 177], [177, 178], [178, 179], [179, 180], [180, 181], [181, 182], [182, 183], [183, 184], [184, 185], [185, 186], [186, 187], [187, 188], [188, 189], [189, 190], [190, 191], [191, 192], [192, 193], [193, 194], [194, 195], [195, 196], [196, 197], [197, 198], [198, 199], [199, 200], [200, 201], [201, 202], [202, 203], [203, 204], [204, 205], [205, 206], [206, 207], [207, 208], [208, 209], [209, 210], [210, 211], [211, 212], [212, 213], [213, 214], [214, 215], [215, 216], [216, 217], [217, 218], [218, 219], [219, 220], [220, 221], [221, 222], [222, 223], [223, 224], [224, 225], [225, 0]]
An Otimal Solution was found, yay!
Objective value: 110616.0
Problem solved in 12044 iterations
Problem solved in 33 nodes
Final Route Configuration succesfully created at:
data/routes/pr226.csv
